Gurobi 12.0.3:   lim:time = 14400

  mip:bestbound = 1

Set parameter LogToConsole to value 1

  tech:outlev = 1

Set parameter Cuts to value 3

  cut:cuts = 3

Set parameter Presolve to value 2

  pre:solve = 2

Set parameter MIPFocus to value 2

  mip:focus = 2

Set parameter Symmetry to value 2

  mip:symmetry = 2

Set parameter InfUnbdInfo to value 1

Gurobi Optimizer version 12.0.3 build v12.0.3rc0 (win64 - Windows 11+.0 (26200.2))



CPU model: 13th Gen Intel(R) Core(TM) i7-13700K, instruction set [SSE2|AVX|AVX2]

Thread count: 16 physical cores, 24 logical processors, using up to 24 threads



Non-default parameters:

TimeLimit  14400

MIPFocus  2

Symmetry  2

Cuts  3

InfUnbdInfo  1

Presolve  2



Optimize a model with 390 rows, 637 columns and 3599 nonzeros

Model fingerprint: 0xbc2efa78

Model has 4 quadratic constraints

Variable types: 33 continuous, 604 integer (0 binary)

Coefficient statistics:

  Matrix range     [1e+00, 1e+05]

  QMatrix range    [1e+00, 1e+00]

  QLMatrix range   [1e+01, 1e+01]

  Objective range  [3e+00, 1e+02]

  Bounds range     [1e+00, 1e+02]

  RHS range        [1e+00, 1e+05]

  QRHS range       [1e+02, 1e+02]

Presolve removed 49 rows and 88 columns

Presolve time: 0.20s

Presolved: 783 rows, 911 columns, 5454 nonzeros

Variable types: 14 continuous, 897 integer (766 binary)

Found heuristic solution: objective 718.2700000

Root relaxation presolve removed 42 rows and 0 columns

Root relaxation presolved: 428 rows, 701 columns, 5716 nonzeros





Root relaxation: objective 9.103525e+01, 62 iterations, 0.01 seconds (0.01 work units)



    Nodes    |    Current Node    |     Objective Bounds      |     Work

 Expl Unexpl |  Obj  Depth IntInf | Incumbent    BestBd   Gap | It/Node Time



     0     0   91.03525    0   50  718.27000   91.03525  87.3%     -    0s

H    0     0                     708.2300000   91.03525  87.1%     -    0s

H    0     0                     578.3800000  216.91028  62.5%     -    0s

     0     0  221.41030    0   41  578.38000  221.41030  61.7%     -    0s

     0     0  221.41030    0   38  578.38000  221.41030  61.7%     -    0s

H    0     0                     527.1900000  221.41092  58.0%     -    0s

H    0     0                     493.3600000  221.41092  55.1%     -    0s

     0     0  223.03207    0   34  493.36000  223.03207  54.8%     -    0s

     0     0  223.03207    0   32  493.36000  223.03207  54.8%     -    0s

H    0     0                     430.4300000  223.03207  48.2%     -    0s

     0     0  239.60500    0   34  430.43000  239.60500  44.3%     -    0s

     0     0  241.49600    0   53  430.43000  241.49600  43.9%     -    0s

H    0     0                     425.3500000  249.29000  41.4%     -    1s

     0     0  249.29000    0   17  425.35000  249.29000  41.4%     -    1s

     0     0  249.29000    0   18  425.35000  249.29000  41.4%     -    1s

     0     0  249.29000    0   18  425.35000  249.29000  41.4%     -    1s

     0     2  249.29000    0   18  425.35000  249.29000  41.4%     -    1s

H   36    44                     412.0600000  249.29282  39.5%  28.9    1s

H   37    44                     410.9700000  249.29282  39.3%  28.8    1s

H  125   106                     400.9900000  249.29282  37.8%  18.8    1s

  4031  1513  315.13000   21  165  400.99000  285.85633  28.7%  16.1    5s

 19284  2707 infeasible   39       400.99000  330.18750  17.7%  18.2   10s



Cutting planes:

  Learned: 5

  Gomory: 2

  Lift-and-project: 13

  Cover: 33

  Implied bound: 42

  Projected implied bound: 5

  Clique: 13

  MIR: 37

  Mixing: 1

  StrongCG: 12

  Flow cover: 265

  GUB cover: 1

  Inf proof: 62

  Zero half: 200

  RLT: 76

  Relax-and-lift: 54



Explored 44770 nodes (700638 simplex iterations) in 14.80 seconds (9.26 work units)

Thread count was 24 (of 24 available processors)



Solution count 10: 400.99 400.99 410.97 ... 708.23



Optimal solution found (tolerance 1.00e-04)

Best objective 4.009900000000e+02, best bound 4.009900000000e+02, gap 0.0000%



AMPL MP initial flat model has 637 variables (0 integer, 604 binary);

Objectives: 1 linear; 

Constraints:  390 linear; 4 quadratic;



AMPL MP final model has 637 variables (0 integer, 604 binary);

Objectives: 1 linear; 

Constraints:  390 linear; 4 quadratic;





-----RESULTS INFO-----
running_time:  14.921000000000001
TC.best_bound:  400.99
TC:  400.98999999999995
MIP Gap (%):  1.4175769685231059e-14
=== Vehicle Routes ===
Vehicle 1: 0 → 3
Vehicle 1: 1 → 19
Vehicle 1: 3 → 18
Vehicle 1: 9 → 1
Vehicle 1: 18 → 9
Vehicle 2: 0 → 13
Vehicle 2: 2 → 19
Vehicle 2: 13 → 14
Vehicle 2: 14 → 2
Vehicle 3: 0 → 19
Vehicle 4: 0 → 19

=== Full Vehicle Routes ===
Vehicle 1: 0 → 3 → 18 → 9 → 1 → 0 (58<100)
Vehicle 2: 0 → 13 → 14 → 2 → 0 (95<100)
Vehicle 3: 0 → 0 (0<100)
Vehicle 4: 0 → 0 (0<100)
Arc used by MRT line: y variables:
Customer assigment to PL: u variables:
4 14
5 14
6 14
7 14
8 18
10 13
11 14
Node is served by regular vehicle: g variables:
1
2
3
9
18
13
14
Customer assigment to Home delivery: gm variables:
1
2
3
9
Node total demands: ntd variables:
1 13 1
2 13 1
3 12 1
8 0 0
9 10 1
10 0 0
11 0 0
18 23 1
12 0 0
13 12 1
14 70 1
15 0 0
16 0 0
17 0 0
Customer's demand delivered to PL: l variables:
4
5
6
7
8
10
11
Lockers load <= capacity:
23 <= 79
0 <= 81
12 <= 83
70 <= 100
0 <= 99
0 <= 94
0 <= 86
